MARKOV
381
 2 2 2 2 2 2 2 2 2 2 2 2 2 2 2 2 2 2 2 2 2 2 2 2 2 2 2 2 2 2 2 2 2 2 2 2 2 2 2 2 2 2 2 2 2 2 2 2 2 2 2 2 2 2 2 2 2 2 2 2 2 2 2 2 2 2 2 2 2 2 2 2 2 2 2 2 2 2 2 2 2 2 2 2 2 2 2 2 2 2 2 2 2 2 2 2 2 2 2 2 2 2 2 2 2 2 2 2 2 2 2 2 2 2 2 2 2 2 2 2 2 2 2 2 2 2 2 2 2 2 2 2 2 2 2 2 2 2 2 2 2 2 2 2 2 2 2 2 2 2 2 2 2 2 2 2 2 2 2 2 2 2 2 2 2 2 2 2 2 2 2 2 2 2 2 2 2 2 2 2 2 2 2 2 2 2 2 2 2 2 2 2 2 2 2 2 2 2 2 2 2 2 2 2 2 2 2 2 2 2 2 2 2 2 2 2 2 2 2 2 2 2 2 2 2 2 2 2 2 2 2 2 2 2 2 2 2 2 2 2 2 2 2 2 2 2 2 2 2 2 2 2 2 2 2 2 2 2 2 2 2 2 2 2 2 2 2 2 2 2 2 2 2 2 2 2 2 2 2 2 2 2 2 2 2 2 2 2 2 2 2 2 2 2 2 2 2 2 2 2 2 2 2 2 2 2 2 2 2 2 2 2 2 2 2 2 2 2 2 2 2 2 2 2 2 2 2 2 2 2 2 2 2 2 2 2 2 2 2 2 2 2 2 2 2 2 2 2 2 2 2 2 2 2 2 2 2 2 2 2 2 2 2 2 2 2 2 2 2 2 2 2 2 2 2 2 2 2 2 2 2
385
3	56 69 380 
3	120 379 380 
3	0 378 379 
3	101 377 378 
3	86 376 377 
3	25 375 376 
3	106 374 375 
3	57 373 374 
3	55 372 373 
3	124 371 372 
3	4 370 371 
3	147 369 370 
3	110 368 369 
3	17 367 368 
3	83 366 367 
3	135 365 366 
3	43 364 365 
3	149 363 364 
3	109 362 363 
3	88 361 362 
3	151 360 361 
3	3 359 360 
3	51 358 359 
3	39 357 358 
3	50 356 357 
3	96 355 356 
3	85 354 355 
3	100 353 354 
3	35 352 353 
3	98 351 352 
3	94 350 351 
3	133 349 350 
3	108 348 349 
3	145 347 348 
3	48 346 347 
3	9 345 346 
3	129 344 345 
3	111 343 344 
3	144 342 343 
3	77 341 342 
3	73 340 341 
3	53 339 340 
3	121 338 339 
3	6 337 338 
3	2 336 337 
3	30 335 336 
3	46 334 335 
3	134 333 334 
3	79 332 333 
3	87 331 332 
3	155 330 331 
3	66 329 330 
3	137 328 329 
3	64 327 328 
3	92 326 327 
3	19 325 326 
3	99 324 325 
3	123 323 324 
3	80 322 323 
1	322 
3	0 56 321 
3	132 320 321 
3	117 319 320 
3	61 318 319 
3	21 317 318 
3	89 316 317 
3	16 315 316 
3	140 314 315 
3	104 313 314 
3	24 312 313 
3	59 311 312 
3	102 310 311 
3	131 309 310 
3	127 308 309 
3	84 307 308 
3	95 306 307 
3	156 305 306 
3	90 304 305 
3	125 303 304 
3	153 302 303 
3	75 301 302 
1	301 
3	116 120 300 
3	47 299 300 
3	139 298 299 
3	23 297 298 
3	27 296 297 
3	49 295 296 
3	149 294 295 
3	102 293 294 
3	58 292 293 
3	20 291 292 
3	71 290 291 
3	67 289 290 
3	14 288 289 
3	118 287 288 
3	133 286 287 
3	145 285 286 
3	129 284 285 
3	111 283 284 
3	77 282 283 
3	144 281 282 
3	136 280 281 
3	41 279 280 
3	141 278 279 
3	60 277 278 
3	54 276 277 
3	134 275 276 
3	46 274 275 
3	31 273 274 
3	8 272 273 
3	76 271 272 
3	130 270 271 
3	138 269 270 
3	113 268 269 
3	22 267 268 
3	38 266 267 
3	157 265 266 
3	45 264 265 
3	40 263 264 
3	124 262 263 
3	57 261 262 
3	28 260 261 
3	147 259 260 
3	81 258 259 
3	142 257 258 
3	43 256 257 
3	44 255 256 
3	88 254 255 
3	39 253 254 
3	51 252 253 
3	5 251 252 
3	72 250 251 
3	35 249 250 
3	62 248 249 
3	150 247 248 
3	125 246 247 
3	107 245 246 
3	33 244 245 
3	1 243 244 
3	108 242 243 
3	74 241 242 
3	37 240 241 
3	48 239 240 
3	112 238 239 
3	11 237 238 
3	52 236 237 
3	143 235 236 
3	93 234 235 
3	32 233 234 
3	91 232 233 
3	66 231 232 
3	64 230 231 
3	148 229 230 
3	123 228 229 
3	105 227 228 
3	69 226 227 
3	70 225 226 
3	56 224 225 
3	0 223 224 
3	101 222 223 
3	25 221 222 
3	21 220 221 
3	106 219 220 
3	146 218 219 
3	4 217 218 
3	122 216 217 
3	152 215 216 
3	17 214 215 
3	135 213 214 
3	3 212 213 
3	151 211 212 
3	96 210 211 
3	50 209 210 
3	85 208 209 
3	115 207 208 
3	68 206 207 
3	9 205 206 
3	36 204 205 
3	65 203 204 
3	154 202 203 
3	97 201 202 
3	18 200 201 
3	128 199 200 
3	53 198 199 
3	82 197 198 
3	103 196 197 
3	79 195 196 
3	87 194 195 
3	42 193 194 
3	155 192 193 
3	114 191 192 
3	137 190 191 
3	19 189 190 
3	63 188 189 
3	86 187 188 
3	119 186 187 
3	12 185 186 
3	15 184 185 
3	55 183 184 
3	110 182 183 
3	83 181 182 
3	109 180 181 
3	10 179 180 
3	100 178 179 
3	156 177 178 
3	126 176 177 
3	98 175 176 
3	94 174 175 
3	78 173 174 
3	158 172 173 
3	73 171 172 
3	29 170 171 
3	26 169 170 
3	121 168 169 
3	7 167 168 
3	6 166 167 
3	2 165 166 
3	30 164 165 
3	13 163 164 
3	92 162 163 
3	99 161 162 
3	34 160 161 
3	80 159 160 
1	159 
1	116 
1	69 
1	70 
1	56 
1	120 
1	0 
1	101 
1	25 
1	61 
1	21 
1	47 
1	106 
1	146 
1	139 
1	23 
1	4 
1	27 
1	122 
1	152 
1	17 
1	24 
1	135 
1	49 
1	59 
1	149 
1	102 
1	131 
1	151 
1	3 
1	50 
1	96 
1	58 
1	85 
1	115 
1	20 
1	71 
1	67 
1	14 
1	118 
1	133 
1	68 
1	145 
1	9 
1	129 
1	111 
1	36 
1	117 
1	77 
1	144 
1	136 
1	41 
1	89 
1	65 
1	154 
1	97 
1	141 
1	16 
1	18 
1	60 
1	128 
1	53 
1	82 
1	104 
1	103 
1	54 
1	46 
1	134 
1	127 
1	84 
1	79 
1	31 
1	42 
1	87 
1	8 
1	155 
1	114 
1	153 
1	137 
1	76 
1	19 
1	130 
1	63 
1	86 
1	119 
1	138 
1	22 
1	113 
1	38 
1	157 
1	12 
1	45 
1	15 
1	40 
1	55 
1	57 
1	124 
1	28 
1	110 
1	147 
1	83 
1	142 
1	81 
1	43 
1	44 
1	109 
1	88 
1	10 
1	39 
1	51 
1	95 
1	5 
1	72 
1	156 
1	100 
1	35 
1	62 
1	150 
1	90 
1	126 
1	125 
1	98 
1	94 
1	78 
1	107 
1	33 
1	1 
1	108 
1	74 
1	37 
1	48 
1	132 
1	158 
1	112 
1	11 
1	52 
1	73 
1	29 
1	26 
1	143 
1	140 
1	121 
1	7 
1	6 
1	2 
1	93 
1	30 
1	32 
1	91 
1	66 
1	64 
1	148 
1	13 
1	92 
1	99 
1	123 
1	105 
1	34 
1	75 
1	80 
0	

8
 1 0 0 1 0 1 0 1
8
 1 0 0 1 0 0 1 1
8
 1 0 0 1 0 0 1 1
8
 1 0 0 1 0 0 1 1
8
 1 0 0 1 0 0 1 1
8
 1 0 0 1 0 0 1 1
8
 1 0 0 1 0 0 1 1
8
 1 0 0 1 0 0 1 1
8
 1 0 0 1 0 0 1 1
8
 1 0 0 1 0 0 1 1
8
 1 0 0 1 0 0 1 1
8
 1 0 0 1 0 0 1 1
8
 1 0 0 1 0 0 1 1
8
 1 0 0 1 0 0 1 1
8
 1 0 0 1 0 0 1 1
8
 1 0 0 1 0 0 1 1
8
 1 0 0 1 0 0 1 1
8
 1 0 0 1 0 0 1 1
8
 1 0 0 1 0 0 1 1
8
 1 0 0 1 0 0 1 1
8
 1 0 0 1 0 0 1 1
8
 1 0 0 1 0 0 1 1
8
 1 0 0 1 0 0 1 1
8
 1 0 0 1 0 0 1 1
8
 1 0 0 1 0 0 1 1
8
 1 0 0 1 0 0 1 1
8
 1 0 0 1 0 0 1 1
8
 1 0 0 1 0 0 1 1
8
 1 0 0 1 0 0 1 1
8
 1 0 0 1 0 0 1 1
8
 1 0 0 1 0 0 1 1
8
 1 0 0 1 0 0 1 1
8
 1 0 0 1 0 0 1 1
8
 1 0 0 1 0 0 1 1
8
 1 0 0 1 0 0 1 1
8
 1 0 0 1 0 0 1 1
8
 1 0 0 1 0 0 1 1
8
 1 0 0 1 0 0 1 1
8
 1 0 0 1 0 0 1 1
8
 1 0 0 1 0 0 1 1
8
 1 0 0 1 0 0 1 1
8
 1 0 0 1 0 0 1 1
8
 1 0 0 1 0 0 1 1
8
 1 0 0 1 0 0 1 1
8
 1 0 0 1 0 0 1 1
8
 1 0 0 1 0 0 1 1
8
 1 0 0 1 0 0 1 1
8
 1 0 0 1 0 0 1 1
8
 1 0 0 1 0 0 1 1
8
 1 0 0 1 0 0 1 1
8
 1 0 0 1 0 0 1 1
8
 1 0 0 1 0 0 1 1
8
 1 0 0 1 0 0 1 1
8
 1 0 0 1 0 0 1 1
8
 1 0 0 1 0 0 1 1
8
 1 0 0 1 0 0 1 1
8
 1 0 0 1 0 0 1 1
8
 1 0 0 1 0 0 1 1
8
 1 0 0 1 0 0 1 1
2
 0.03 1
8
 1 0 0.4 0.6 0.6 0.4 0.24 0.76
8
 1 0 0 1 0.02 0 0.98 1
8
 1 0 0 1 0 0 1 1
8
 1 0 0 1 0.5 0 0.5 1
8
 1 0 0 1 0.5 0 0.5 1
8
 1 0 0 1 0.89 0 0.11 1
8
 1 0 0 1 0.4 0 0.6 1
8
 1 0 0 1 0.02 0 0.98 1
8
 1 0 0 1 0.4 0 0.6 1
8
 1 0 0 1 0.4 0 0.6 1
8
 1 0 0 1 0.4 0 0.6 1
8
 1 0 0 1 0.89 0 0.11 1
8
 1 0 0 1 0.1 0 0.9 1
8
 1 0 0 1 0.05 0 0.95 1
8
 1 0 0 1 0.02 0 0.98 1
8
 1 0 0 1 0.01 0 0.99 1
8
 1 0 0 1 0.4 0 0.6 1
8
 1 0 0 1 0 0 1 1
8
 1 0 0 1 0.4 0 0.6 1
8
 1 0 0 1 0.05 0 0.95 1
8
 1 0 0 1 0.1 0 0.9 1
2
 0.03 1
8
 1 0 0 1 0.9 0.1 0 1
8
 1 0 0 1 0.4 0 0.6 1
8
 1 0 0 1 0.5 0 0.5 1
8
 1 0 0 1 0.9 0 0.1 1
8
 1 0 0 1 0.5 0 0.5 1
8
 1 0 0 1 0.5 0 0.5 1
8
 1 0 0 1 0 0 1 1
8
 1 0 0 1 0.89 0 0.11 1
8
 1 0 0 1 0.2 0 0.8 1
8
 1 0 0 1 0.4 0 0.6 1
8
 1 0 0 1 0.1 0 0.9 1
8
 1 0 0 1 0.5 0 0.5 1
8
 1 0 0 1 0.5 0 0.5 1
8
 1 0 0 1 0.1 0 0.9 1
8
 1 0 0 1 0 0 1 1
8
 1 0 0 1 0.5 0 0.5 1
8
 1 0 0 1 0.01 0 0.99 1
8
 1 0 0 1 0 0 1 1
8
 1 0 0 1 0 0 1 1
8
 1 0 0 1 0 0 1 1
8
 1 0 0 1 0.5 0 0.5 1
8
 1 0 0 1 0.9 0 0.1 1
8
 1 0 0 1 0.5 0 0.5 1
8
 1 0 0 1 0.9 0 0.1 1
8
 1 0 0 1 0.5 0 0.5 1
8
 1 0 0 1 0.1 0 0.9 1
8
 1 0 0 1 0 0 1 1
8
 1 0 0 1 0.1 0 0.9 1
8
 1 0 0 1 0.5 0 0.5 1
8
 1 0 0 1 0.5 0 0.5 1
8
 1 0 0 1 0.5 0 0.5 1
8
 1 0 0 1 0.09 0 0.91 1
8
 1 0 0 1 0.5 0 0.5 1
8
 1 0 0 1 0.1 0 0.9 1
8
 1 0 0 1 0.5 0 0.5 1
8
 1 0 0 1 0.09 0 0.91 1
8
 1 0 0 1 0.5 0 0.5 1
8
 1 0 0 1 0.5 0 0.5 1
8
 1 0 0 1 0 0 1 1
8
 1 0 0 1 0 0 1 1
8
 1 0 0 1 0.5 0 0.5 1
8
 1 0 0 1 0 0 1 1
8
 1 0 0 1 0.5 0 0.5 1
8
 1 0 0 1 0.1 0 0.9 1
8
 1 0 0 1 0.5 0 0.5 1
8
 1 0 0 1 0.57 0 0.43 1
8
 1 0 0 1 0 0 1 1
8
 1 0 0 1 0 0 1 1
8
 1 0 0 1 0 0 1 1
8
 1 0 0 1 0.5 0 0.5 1
8
 1 0 0 1 0.5 0 0.5 1
8
 1 0 0 1 0 0 1 1
8
 1 0 0 1 0.7 0 0.3 1
8
 1 0 0 1 0.5 0 0.5 1
8
 1 0 0 1 0.5 0 0.5 1
8
 1 0 0 1 0.1 0 0.9 1
8
 1 0 0 1 0.4 0 0.6 1
8
 1 0 0 1 0.5 0 0.5 1
8
 1 0 0 1 0 0 1 1
8
 1 0 0 1 0.9 0 0.1 1
8
 1 0 0 1 0.5 0 0.5 1
8
 1 0 0 1 0 0 1 1
8
 1 0 0 1 0.89 0 0.11 1
8
 1 0 0 1 0.5 0 0.5 1
8
 1 0 0 1 0.5 0 0.5 1
8
 1 0 0 1 0.5 0 0.5 1
8
 1 0 0 1 0.5 0 0.5 1
8
 1 0 0 1 0.4 0 0.6 1
8
 1 0 0 1 0.5 0 0.5 1
8
 1 0 0 1 0 0 1 1
8
 1 0 0 1 0 0 1 1
8
 1 0 0 1 0.1 0 0.9 1
8
 1 0 0 1 0 0 1 1
8
 1 0 0 1 0.4 0 0.6 1
8
 1 0 0 1 0 0 1 1
8
 1 0 0 1 0.5 0 0.5 1
8
 1 0 0 1 0.9 0 0.1 1
8
 1 0 0 1 0 0 1 1
8
 1 0 0 1 0 0 1 1
8
 1 0 0 1 0.6 0 0.4 1
8
 1 0 0 1 0.5 0 0.5 1
8
 1 0 0 1 0.1 0 0.9 1
8
 1 0 0 1 0.4 0 0.6 1
8
 1 0 0 1 0 0 1 1
8
 1 0 0 1 0.5 0 0.5 1
8
 1 0 0 1 0.09 0 0.91 1
8
 1 0 0 1 0 0 1 1
8
 1 0 0 1 0 0 1 1
8
 1 0 0 1 0 0 1 1
8
 1 0 0 1 0 0 1 1
8
 1 0 0 1 0 0 1 1
8
 1 0 0 1 0 0 1 1
8
 1 0 0 1 0 0 1 1
8
 1 0 0 1 0.5 0 0.5 1
8
 1 0 0 1 0.5 0 0.5 1
8
 1 0 0 1 0 0 1 1
8
 1 0 0 1 0.5 0 0.5 1
8
 1 0 0 1 0.4 0 0.6 1
8
 1 0 0 1 0.7 0 0.3 1
8
 1 0 0 1 0.5 0 0.5 1
8
 1 0 0 1 0.89 0 0.11 1
8
 1 0 0 1 0.9 0 0.1 1
8
 1 0 0 1 0 0 1 1
8
 1 0 0 1 0.9 0 0.1 1
8
 1 0 0 1 0.5 0 0.5 1
8
 1 0 0 1 0 0 1 1
8
 1 0 0 1 0 0 1 1
8
 1 0 0 1 0.5 0 0.5 1
8
 1 0 0 1 0 0 1 1
8
 1 0 0 1 0.5 0 0.5 1
8
 1 0 0 1 0 0 1 1
8
 1 0 0 1 0 0 1 1
8
 1 0 0 1 0.7 0 0.3 1
8
 1 0 0 1 0 0 1 1
8
 1 0 0 1 0.5 0 0.5 1
8
 1 0 0 1 0.9 0 0.1 1
8
 1 0 0 1 0.9 0 0.1 1
8
 1 0 0 1 0 0 1 1
8
 1 0 0 1 0 0 1 1
8
 1 0 0 1 0 0 1 1
8
 1 0 0 1 0 0 1 1
8
 1 0 0 1 0.09 0 0.91 1
8
 1 0 0 1 0 0 1 1
8
 1 0 0 1 0.9 0 0.1 1
8
 1 0 0 1 0.5 0 0.5 1
8
 1 0 0 1 0 0 1 1
8
 1 0 0 1 0 0 1 1
8
 1 0 0 1 0.9 0 0.1 1
8
 1 0 0 1 0.9 0 0.1 1
8
 1 0 0 1 0 0 1 1
8
 1 0 0 1 0.5 0 0.5 1
8
 1 0 0 1 0.5 0 0.5 1
8
 1 0 0 1 0 0 1 1
8
 1 0 0 1 0.5 0 0.5 1
8
 1 0 0 1 0 0 1 1
8
 1 0 0 1 0.1 0 0.9 1
8
 1 0 0 1 0 0 1 1
8
 1 0 0 1 0.5 0 0.5 1
8
 1 0 0 1 0 0 1 1
8
 1 0 0 1 0 0 1 1
8
 1 0 0 1 0.9 0 0.1 1
8
 1 0 0 1 0.01 0 0.99 1
2
 0.03 1
2
 0.9995 0.0005
2
 0.9999 0.0001
2
 0.99996 4e-05
2
 0.99985 0.00015
2
 0.99995 5e-05
2
 0.9999 0.0001
2
 0.9999 0.0001
2
 0.9996 0.0004
2
 0.9999 0.0001
2
 0.99989 0.00011
2
 0.9999 0.0001
2
 0.99995 5e-05
2
 0.9999 0.0001
2
 0.99999 1e-05
2
 0.99975 0.00025
2
 0.999 0.001
2
 0.99999 1e-05
2
 0.9996 0.0004
2
 0.99995 5e-05
2
 0.9985 0.0015
2
 0.9999 0.0001
2
 0.99987 0.00013
2
 0.99999 1e-05
2
 0.999999 6.2e-07
2
 0.9999 0.0001
2
 0.9999 0.0001
2
 0.9995 0.0005
2
 0.99995 5e-05
2
 0.99995 5e-05
2
 0.99998 2e-05
2
 0.9999 0.0001
2
 0.99995 5e-05
2
 0.9999 0.0001
2
 1 1.2e-07
2
 0.9999 0.0001
2
 0.999999 1e-06
2
 0.99989 0.00011
2
 0.9999 0.0001
2
 0.9999 0.0001
2
 0.9999 0.0001
2
 0.99995 5e-05
2
 0.99998 2e-05
2
 0.9999 0.0001
2
 0.99999 1e-05
2
 0.9999 0.0001
2
 0.9999 0.0001
2
 0.99995 5e-05
2
 0.99995 5e-05
2
 0.998 0.002
2
 0.99974 0.00026
2
 0.999998 2e-06
2
 0.9999 0.0001
2
 0.999996 4e-06
2
 1 1.6e-07
2
 0.9999 0.0001
2
 0.99945 0.00055
2
 0.9994 0.0006
2
 0.9999 0.0001
2
 0.99996 4e-05
2
 0.999907 9.332e-05
2
 0.9999 0.0001
2
 0.9994 0.0006
2
 0.99989 0.00011
2
 0.999969 3.12e-05
2
 0.99981 0.00019
2
 0.99998 2e-05
2
 0.9999 0.0001
2
 0.9998 0.0002
2
 0.999998 2e-06
2
 0.99995 5e-05
2
 0.9999 0.0001
2
 0.9999 0.0001
2
 0.9999 0.0001
2
 0.9999 0.0001
2
 0.99882 0.00118
2
 0.99999 1e-05
2
 0.9999 0.0001
2
 0.9999 0.0001
2
 0.9999 0.0001
2
 0.9999 0.0001
2
 0.99999 1e-05
2
 0.9998 0.0002
2
 0.9999 0.0001
2
 0.9995 0.0005
2
 0.99996 4e-05
2
 0.9999 0.0001
2
 0.99995 5e-05
2
 0.9995 0.0005
2
 0.99995 5e-05
2
 0.99991 9e-05
2
 0.99999 1e-05
2
 0.9999 0.0001
2
 0.9999 0.0001
2
 0.99995 5e-05
2
 0.9999 0.0001
2
 0.99999 1e-05
2
 0.99982 0.00018
2
 0.99997 3e-05
2
 0.9999 0.0001
2
 0.9985 0.0015
2
 0.9998 0.0002
2
 0.99995 5e-05
2
 0.99985 0.00015
2
 0.9999 0.0001
2
 0.99995 5e-05
2
 0.9996 0.0004
2
 0.99994 6e-05
2
 0.99998 2e-05
2
 0.99995 5e-05
2
 0.9998 0.0002
2
 0.99999 1e-05
2
 0.9999 0.0001
2
 0.9998 0.0002
2
 0.9999 0.0001
2
 0.9999 0.0001
2
 1 1e-07
2
 0.9995 0.0005
2
 0.999999 1e-06
2
 0.9999 0.0001
2
 0.9995 0.0005
2
 0.99997 3e-05
2
 0.99997 3e-05
2
 0.9999 0.0001
2
 0.9998 0.0002
2
 0.9998 0.0002
2
 0.99995 5e-05
2
 0.9998 0.0002
2
 0.9994 0.0006
2
 0.99999 1e-05
2
 0.99998 2e-05
2
 0.99998 2e-05
2
 0.9995 0.0005
2
 0.9999 0.0001
2
 0.9995 0.0005
2
 0.9999 0.0001
2
 0.9999 0.0001
2
 0.9999 0.0001
2
 0.99997 3e-05
2
 0.99984 0.00016
2
 0.999999 1e-06
2
 0.9999 0.0001
2
 0.99999 1e-05
2
 0.9999 0.0001
2
 0.99996 4e-05
2
 0.999 0.001
2
 0.9999 0.0001
2
 0.998 0.002
2
 0.9999 0.0001
2
 0.9999 0.0001
2
 0.99998 2e-05
2
 0.99995 5e-05
2
 0.9998 0.0002
2
 0.99997 3e-05
2
 0.99998 2e-05
2
 0.9999 0.0001
2
 0.9982 0.0018
2
 0.9999 0.0001
2
 0.9996 0.0004
2
 0.99993 7e-05
1
 0.5

